# Solution for model GasLib-40
# Objective value = 5.2971457418961194e+01
loadshed[innode_1] 0
loadshed[innode_2] 0
loadshed[innode_3] 0
loadshed[innode_4] 0
loadshed[innode_5] 0
loadshed[innode_6] 0
loadshed[innode_7] 0
loadshed[innode_8] 0
loadshed[source_1] -9.7179087104474871e-02
loadshed[source_2] 6.2531834173159551e-02
loadshed[source_3] 3.6971818938329137e-01
loadshed[sink_1] 3.7499270432080045e-01
loadshed[sink_2] 0
loadshed[sink_3] 0
loadshed[sink_4] 0
loadshed[sink_5] 0
loadshed[sink_6] 0
loadshed[sink_7] 0
loadshed[sink_8] 0
loadshed[sink_9] 0
loadshed[sink_10] 0
loadshed[sink_11] 0
loadshed[sink_12] 1
loadshed[sink_13] 0
loadshed[sink_14] 0
loadshed[sink_15] 0
loadshed[sink_16] 0
loadshed[sink_17] 0
loadshed[sink_18] 0
loadshed[sink_19] 0
loadshed[sink_20] 0
loadshed[sink_21] 1
loadshed[sink_22] 0
loadshed[sink_23] 0
loadshed[sink_24] 0.864026348048801
loadshed[sink_25] 0
loadshed[sink_26] 0
loadshed[sink_27] 0
loadshed[sink_28] 0
loadshed[sink_29] 0
flow[source_1,sink_3] 1.7345334665231508e+02
flow[innode_1,sink_16] 1.6354166666666970e+01
flow[innode_6,sink_13] 1.4837740147991326e+01
flow[sink_13,sink_14] -1.5164265186753418e+00
flow[sink_14,sink_10] -1.7870593185342159e+01
flow[sink_25,sink_26] 1.1600673029232206e+02
flow[sink_26,sink_9] 0
flow[sink_9,sink_18] -1.6354166666669244e+01
flow[sink_26,sink_4] 99.6525636256552
flow[sink_4,sink_20] 0
flow[sink_18,sink_6] -3.2708333333335915e+01
flow[sink_25,innode_8] -1.4074501331897869e+02
flow[sink_6,sink_7] -7.5638140148089462e+01
flow[sink_6,sink_22] 2.6575640148086912e+01
flow[sink_7,sink_24] 2.2237357662852353e+00
flow[sink_22,sink_1] 1.0221473481420244e+01
flow[sink_24,sink_21] 0
flow[sink_21,sink_12] 0
flow[sink_7,sink_5] -9.4216042581041378e+01
flow[sink_5,sink_17] -1.1057020924770805e+02
flow[sink_17,sink_4] -8.3298396958988576e+01
flow[sink_17,sink_8] -43.6259789553862
flow[sink_3,sink_23] 16.3541666666697
flow[sink_8,sink_20] -5.9980145622052873e+01
flow[sink_25,sink_20] 7.6334312288719445e+01
flow[sink_25,sink_15] -8.2787936076721167e+01
flow[sink_15,sink_29] -5.6126628798344541e+01
flow[sink_29,sink_28] 1.6354166666667879e+01
flow[sink_29,sink_2] 59.36964061171
flow[sink_2,sink_15] 4.3015473945043368e+01
flow[sink_29,innode_7] -1.4820460274338905e+02
flow[innode_4,sink_19] 3.7813545560683679e+01
flow[sink_19,innode_3] 66.9330931853425
flow[innode_4,innode_5] 6.1827880957992420e+01
flow[sink_27,innode_5] -6.1827880957992420e+01
flow[sink_27,sink_19] 4.5473714291325791e+01
flow[sink_10,sink_11] 3.2708333333333641e+01
flow[sink_10,innode_2] 0
flow[sink_10,innode_3] -66.9330931853425
flow[innode_6,sink_25] -1.4837740147991326e+01
flow[sink_11,innode_1] 1.6354166666666970e+01
flow[sink_19,innode_2] 0
flow[source_3,innode_4] 99.6414265186762
flow[source_2,innode_7] 1.4820460274338905e+02
flow[sink_3,innode_8] 1.4074501331897869e+02
pressure[innode_1] 7.5617887715511344e+01
pressure[innode_2] 7.9481326919873467e+01
pressure[innode_3] 79.3331111643651
pressure[innode_4] 81.01325
pressure[innode_5] 8.0970721523282833e+01
pressure[innode_6] 7.5003419265763142e+01
pressure[innode_7] 81.01325
pressure[innode_8] 8.0433461723721450e+01
pressure[source_1] 81.01325
pressure[source_2] 81.01325
pressure[source_3] 81.01325
pressure[sink_1] 1.0132500000000002e+00
pressure[sink_2] 7.5545457468080585e+01
pressure[sink_3] 8.0433461723721450e+01
pressure[sink_4] 5.4163048526535441e+01
pressure[sink_5] 42.7429770982102
pressure[sink_6] 2.5209303891014687e+00
pressure[sink_7] 3.5592617592963629e+00
pressure[sink_8] 5.2625779986229539e+01
pressure[sink_9] 1.0557780097952310e+00
pressure[sink_10] 7.5769589023114889e+01
pressure[sink_11] 7.5617887715511344e+01
pressure[sink_12] 1.01325
pressure[sink_13] 7.4921621283943992e+01
pressure[sink_14] 7.4924335058370133e+01
pressure[sink_15] 7.5405021426107780e+01
pressure[sink_16] 7.4596237880693664e+01
pressure[sink_17] 5.0979658462736516e+01
pressure[sink_18] 1.6475205035949854e+00
pressure[sink_19] 7.9481326919873467e+01
pressure[sink_20] 5.6805552619041627e+01
pressure[sink_21] 1.01325
pressure[sink_22] 1.6781134748902744e+00
pressure[sink_23] 8.0268743712061664e+01
pressure[sink_24] 1.01325
pressure[sink_25] 7.5003419265763142e+01
pressure[sink_26] 6.6833133378249556e+01
pressure[sink_27] 8.0457664356971350e+01
pressure[sink_28] 7.6754075193861368e+01
pressure[sink_29] 7.7049357467478544e+01
interdiction[source_1,sink_3] 0
interdiction[innode_1,sink_16] 0
interdiction[innode_6,sink_13] 0
interdiction[sink_13,sink_14] 0
interdiction[sink_14,sink_10] 0
interdiction[sink_25,sink_26] 0
interdiction[sink_26,sink_9] 1
interdiction[sink_9,sink_18] 0
interdiction[sink_26,sink_4] 0
interdiction[sink_4,sink_20] 1
interdiction[sink_18,sink_6] 0
interdiction[sink_25,innode_8] 0
interdiction[sink_6,sink_7] 0
interdiction[sink_6,sink_22] 0
interdiction[sink_7,sink_24] 0
interdiction[sink_22,sink_1] 0
interdiction[sink_24,sink_21] 0
interdiction[sink_21,sink_12] 0
interdiction[sink_7,sink_5] 0
interdiction[sink_5,sink_17] 0
interdiction[sink_17,sink_4] 0
interdiction[sink_17,sink_8] 0
interdiction[sink_3,sink_23] 0
interdiction[sink_8,sink_20] 0
interdiction[sink_25,sink_20] 0
interdiction[sink_25,sink_15] 0
interdiction[sink_15,sink_29] 0
interdiction[sink_29,sink_28] 0
interdiction[sink_29,sink_2] 0
interdiction[sink_2,sink_15] 0
interdiction[sink_29,innode_7] 0
interdiction[innode_4,sink_19] 0
interdiction[sink_19,innode_3] 0
interdiction[innode_4,innode_5] 0
interdiction[sink_27,innode_5] 0
interdiction[sink_27,sink_19] 0
interdiction[sink_10,sink_11] 0
interdiction[sink_10,innode_2] 1
interdiction[sink_10,innode_3] 0
interdiction[innode_6,sink_25] 0
interdiction[sink_11,innode_1] 0
interdiction[sink_19,innode_2] 0
interdiction[source_3,innode_4] 0
interdiction[source_2,innode_7] 0
interdiction[sink_3,innode_8] 0
WCcheckFlow[source_1,sink_3] 39
WCcheckFlow[innode_1,sink_16] 1
WCcheckFlow[innode_6,sink_13] 13
WCcheckFlow[sink_13,sink_14] 12
WCcheckFlow[sink_14,sink_10] 11
WCcheckFlow[sink_25,sink_26] 15
WCcheckFlow[sink_26,sink_9] 0
WCcheckFlow[sink_9,sink_18] -1
WCcheckFlow[sink_26,sink_4] 14
WCcheckFlow[sink_4,sink_20] 0
WCcheckFlow[sink_18,sink_6] -2
WCcheckFlow[sink_25,innode_8] -36
WCcheckFlow[sink_6,sink_7] -5
WCcheckFlow[sink_6,sink_22] 2
WCcheckFlow[sink_7,sink_24] 3
WCcheckFlow[sink_22,sink_1] 1
WCcheckFlow[sink_24,sink_21] 2
WCcheckFlow[sink_21,sink_12] 1
WCcheckFlow[sink_7,sink_5] -9
WCcheckFlow[sink_5,sink_17] -10
WCcheckFlow[sink_17,sink_4] -13
WCcheckFlow[sink_17,sink_8] 2
WCcheckFlow[sink_3,sink_23] 1
WCcheckFlow[sink_8,sink_20] 1
WCcheckFlow[sink_25,sink_20] 0
WCcheckFlow[sink_25,sink_15] 6
WCcheckFlow[sink_15,sink_29] 5
WCcheckFlow[sink_29,sink_28] 1
WCcheckFlow[sink_29,sink_2] 1
WCcheckFlow[sink_2,sink_15] 0
WCcheckFlow[sink_29,innode_7] 2
WCcheckFlow[innode_4,sink_19] -4
WCcheckFlow[sink_19,innode_3] -6
WCcheckFlow[innode_4,innode_5] 2
WCcheckFlow[sink_27,innode_5] -1
WCcheckFlow[sink_27,sink_19] 0
WCcheckFlow[sink_10,sink_11] 3
WCcheckFlow[sink_10,innode_2] 0
WCcheckFlow[sink_10,innode_3] 7
WCcheckFlow[innode_6,sink_25] -14
WCcheckFlow[sink_11,innode_1] 2
WCcheckFlow[sink_19,innode_2] 1
WCcheckFlow[source_3,innode_4] -1
WCcheckFlow[source_2,innode_7] -1
WCcheckFlow[sink_3,innode_8] 37
